c A SAT instance generated from a 3-CNF formula that had 27 clauses and 9 variables
p cnf 9 27
4 -6 2 0
2 -5 9 0
8 7 3 0
6 -3 -7 0
9 -4 -1 0
2 4 1 0
7 8 -6 0
2 -7 6 0
1 -9 -2 0
-2 -6 -4 0
-2 -7 -3 0
6 9 5 0
-9 3 -2 0
-2 7 3 0
-1 7 6 0
7 -5 -2 0
-4 5 8 0
9 -1 -8 0
9 -8 1 0
-2 7 -4 0
-6 4 -2 0
1 5 9 0
-6 -2 4 0
2 -3 -4 0
8 4 9 0
-9 -2 1 0
-4 -6 1 0
